40
    20    27    81    26     8    99    18   100    29    73    52    68    30     7    31    99    86     9    81    69    99    44     7    52   100    27    91    31    49    27    93    88    32    67    54     9    66    22    89    85
     7     3     8     6     8     7     7     8     6     9     6     1    10     4     7     9     9     8     2     3     7     9     8     6     2     3     7     5     5     2    10     4     9     2     7     1     4     8     7     1
  1338   923     0   770  1335   300     0   251  1167  1117   326   518   198   951   909  1494   241     0     7   360  1072   795  1055  1145  1299     0   728     0   303   785     0     0  1254  1142  1225  1178   194   467     0  1221
